c Command line: hgen8 120 30
p cnf 120 192
14 108 92 81 0
42 21 60 32 0
55 120 97 3 0
30 96 73 36 0
2 20 33 66 0
50 44 78 63 0
75 90 102 94 0
4 82 10 53 0
49 24 67 61 0
62 57 99 112 0
101 79 1 17 0
100 110 118 8 0
51 114 5 74 0
85 80 117 115 0
71 111 89 46 0
107 7 43 104 0
103 39 47 38 0
113 59 98 12 0
105 28 88 84 0
77 72 6 87 0
70 91 64 31 0
13 109 26 119 0
106 11 41 69 0
93 116 23 19 0
45 76 15 65 0
-1 -2 0
-1 -3 0
-1 -4 0
-1 -5 0
-2 -3 0
-2 -4 0
-2 -5 0
-3 -4 0
-3 -5 0
-4 -5 0
-6 -7 0
-6 -8 0
-6 -10 0
-7 -8 0
-7 -10 0
-8 -10 0
-11 -12 0
-11 -13 0
-11 -14 0
-11 -15 0
-12 -13 0
-12 -14 0
-12 -15 0
-13 -14 0
-13 -15 0
-14 -15 0
-17 -19 0
-17 -20 0
-19 -20 0
-21 -23 0
-21 -24 0
-23 -24 0
-26 -28 0
-26 -30 0
-28 -30 0
-31 -32 0
-31 -33 0
-32 -33 0
-36 -38 0
-36 -39 0
-38 -39 0
-41 -42 0
-41 -43 0
-41 -44 0
-41 -45 0
-42 -43 0
-42 -44 0
-42 -45 0
-43 -44 0
-43 -45 0
-44 -45 0
-46 -47 0
-46 -49 0
-46 -50 0
-47 -49 0
-47 -50 0
-49 -50 0
-51 -53 0
-51 -55 0
-53 -55 0
-57 -59 0
-57 -60 0
-59 -60 0
-61 -62 0
-61 -63 0
-61 -64 0
-61 -65 0
-62 -63 0
-62 -64 0
-62 -65 0
-63 -64 0
-63 -65 0
-64 -65 0
-66 -67 0
-66 -69 0
-66 -70 0
-67 -69 0
-67 -70 0
-69 -70 0
-71 -72 0
-71 -73 0
-71 -74 0
-71 -75 0
-72 -73 0
-72 -74 0
-72 -75 0
-73 -74 0
-73 -75 0
-74 -75 0
-76 -77 0
-76 -78 0
-76 -79 0
-76 -80 0
-77 -78 0
-77 -79 0
-77 -80 0
-78 -79 0
-78 -80 0
-79 -80 0
-81 -82 0
-81 -84 0
-81 -85 0
-82 -84 0
-82 -85 0
-84 -85 0
-87 -88 0
-87 -89 0
-87 -90 0
-88 -89 0
-88 -90 0
-89 -90 0
-91 -92 0
-91 -93 0
-91 -94 0
-92 -93 0
-92 -94 0
-93 -94 0
-96 -97 0
-96 -98 0
-96 -99 0
-96 -100 0
-97 -98 0
-97 -99 0
-97 -100 0
-98 -99 0
-98 -100 0
-99 -100 0
-101 -102 0
-101 -103 0
-101 -104 0
-101 -105 0
-102 -103 0
-102 -104 0
-102 -105 0
-103 -104 0
-103 -105 0
-104 -105 0
-106 -107 0
-106 -108 0
-106 -109 0
-106 -110 0
-107 -108 0
-107 -109 0
-107 -110 0
-108 -109 0
-108 -110 0
-109 -110 0
-111 -112 0
-111 -113 0
-111 -114 0
-111 -115 0
-112 -113 0
-112 -114 0
-112 -115 0
-113 -114 0
-113 -115 0
-114 -115 0
-116 -117 0
-116 -118 0
-116 -119 0
-116 -120 0
-117 -118 0
-117 -119 0
-117 -120 0
-118 -119 0
-118 -120 0
-119 -120 0
